p tw 360 5701 8 
1 9 
1 11 
1 301 
1 303 
2 7 
2 10 
2 12 
2 302 
2 304 
3 8 
3 10 
3 293 
4 7 
4 9 
4 294 
5 9 
5 10 
5 295 
6 7 
6 8 
6 296 
11 18 
11 19 
11 303 
12 17 
12 20 
12 304 
13 18 
13 20 
13 23 
14 17 
14 19 
14 24 
15 19 
15 20 
15 25 
16 17 
16 18 
16 26 
21 28 
21 29 
21 31 
21 305 
21 307 
22 27 
22 30 
22 32 
22 306 
22 308 
23 28 
23 30 
24 27 
24 29 
25 29 
25 30 
26 27 
26 28 
31 38 
31 39 
31 307 
32 37 
32 40 
32 308 
33 38 
33 40 
33 43 
34 37 
34 39 
34 44 
35 39 
35 40 
35 45 
36 37 
36 38 
36 46 
41 48 
41 49 
41 51 
41 309 
41 311 
42 47 
42 50 
42 52 
42 310 
42 312 
43 48 
43 50 
44 47 
44 49 
45 49 
45 50 
46 47 
46 48 
51 58 
51 59 
51 311 
52 57 
52 60 
52 312 
53 58 
53 60 
53 63 
54 57 
54 59 
54 64 
55 59 
55 60 
55 65 
56 57 
56 58 
56 66 
61 68 
61 69 
61 71 
61 313 
61 315 
62 67 
62 70 
62 72 
62 314 
62 316 
63 68 
63 70 
64 67 
64 69 
65 69 
65 70 
66 67 
66 68 
71 78 
71 79 
71 315 
72 77 
72 80 
72 316 
73 78 
73 80 
73 83 
74 77 
74 79 
74 84 
75 79 
75 80 
75 85 
76 77 
76 78 
76 86 
81 88 
81 89 
81 91 
81 317 
81 319 
82 87 
82 90 
82 92 
82 318 
82 320 
83 88 
83 90 
84 87 
84 89 
85 89 
85 90 
86 87 
86 88 
91 98 
91 99 
91 319 
92 97 
92 100 
92 320 
93 98 
93 100 
93 103 
94 97 
94 99 
94 104 
95 99 
95 100 
95 105 
96 97 
96 98 
96 106 
101 108 
101 109 
101 111 
101 321 
101 323 
102 107 
102 110 
102 112 
102 322 
102 324 
103 108 
103 110 
104 107 
104 109 
105 109 
105 110 
106 107 
106 108 
111 118 
111 119 
111 323 
112 117 
112 120 
112 324 
113 118 
113 120 
113 123 
114 117 
114 119 
114 124 
115 119 
115 120 
115 125 
116 117 
116 118 
116 126 
121 128 
121 129 
121 131 
121 325 
121 327 
122 127 
122 130 
122 132 
122 326 
122 328 
123 128 
123 130 
124 127 
124 129 
125 129 
125 130 
126 127 
126 128 
131 138 
131 139 
131 327 
132 137 
132 140 
132 328 
133 138 
133 140 
133 143 
134 137 
134 139 
134 144 
135 139 
135 140 
135 145 
136 137 
136 138 
136 146 
141 148 
141 149 
141 151 
141 329 
141 331 
142 147 
142 150 
142 152 
142 330 
142 332 
143 148 
143 150 
144 147 
144 149 
145 149 
145 150 
146 147 
146 148 
151 158 
151 159 
151 331 
152 157 
152 160 
152 332 
153 158 
153 160 
153 163 
154 157 
154 159 
154 164 
155 159 
155 160 
155 165 
156 157 
156 158 
156 166 
161 168 
161 169 
161 171 
161 333 
161 335 
162 167 
162 170 
162 172 
162 334 
162 336 
163 168 
163 170 
164 167 
164 169 
165 169 
165 170 
166 167 
166 168 
171 178 
171 179 
171 335 
172 177 
172 180 
172 336 
173 178 
173 180 
173 183 
174 177 
174 179 
174 184 
175 179 
175 180 
175 185 
176 177 
176 178 
176 186 
181 188 
181 189 
181 191 
181 337 
181 339 
182 187 
182 190 
182 192 
182 338 
182 340 
183 188 
183 190 
184 187 
184 189 
185 189 
185 190 
186 187 
186 188 
191 198 
191 199 
191 339 
192 197 
192 200 
192 340 
193 198 
193 200 
193 203 
194 197 
194 199 
194 204 
195 199 
195 200 
195 205 
196 197 
196 198 
196 206 
201 208 
201 209 
201 211 
201 341 
201 343 
202 207 
202 210 
202 212 
202 342 
202 344 
203 208 
203 210 
204 207 
204 209 
205 209 
205 210 
206 207 
206 208 
211 218 
211 219 
211 343 
212 217 
212 220 
212 344 
213 218 
213 220 
213 223 
214 217 
214 219 
214 224 
215 219 
215 220 
215 225 
216 217 
216 218 
216 226 
221 228 
221 229 
221 231 
221 345 
221 347 
222 227 
222 230 
222 232 
222 346 
222 348 
223 228 
223 230 
224 227 
224 229 
225 229 
225 230 
226 227 
226 228 
231 238 
231 239 
231 347 
232 237 
232 240 
232 348 
233 238 
233 240 
233 243 
234 237 
234 239 
234 244 
235 239 
235 240 
235 245 
236 237 
236 238 
236 246 
241 248 
241 249 
241 251 
241 349 
241 351 
242 247 
242 250 
242 252 
242 350 
242 352 
243 248 
243 250 
244 247 
244 249 
245 249 
245 250 
246 247 
246 248 
251 258 
251 259 
251 351 
252 257 
252 260 
252 352 
253 258 
253 260 
253 263 
254 257 
254 259 
254 264 
255 259 
255 260 
255 265 
256 257 
256 258 
256 266 
261 268 
261 269 
261 271 
261 353 
261 355 
262 267 
262 270 
262 272 
262 354 
262 356 
263 268 
263 270 
264 267 
264 269 
265 269 
265 270 
266 267 
266 268 
271 278 
271 279 
271 355 
272 277 
272 280 
272 356 
273 278 
273 280 
273 283 
274 277 
274 279 
274 284 
275 279 
275 280 
275 285 
276 277 
276 278 
276 286 
281 288 
281 289 
281 291 
281 357 
281 359 
282 287 
282 290 
282 292 
282 358 
282 360 
283 288 
283 290 
284 287 
284 289 
285 289 
285 290 
286 287 
286 288 
291 298 
291 299 
291 359 
292 297 
292 300 
292 360 
293 298 
293 300 
294 297 
294 299 
295 299 
295 300 
296 297 
296 298 
301 302 
303 304 
305 306 
307 308 
309 310 
311 312 
313 314 
315 316 
317 318 
319 320 
321 322 
323 324 
325 326 
327 328 
329 330 
331 332 
333 334 
335 336 
337 338 
339 340 
341 342 
343 344 
345 346 
347 348 
349 350 
351 352 
353 354 
355 356 
357 358 
359 360 
